(set-logic QF_LRA)
(declare-fun fluent_started_i0_t0@0 () Bool)
(declare-fun fluent_started_i0_t1@0 () Bool)
(declare-fun fluent_started_i0_t2@0 () Bool)
(declare-fun fluent_started_i0_t3@0 () Bool)
(declare-fun fluent_counter_t0@1 () Real)
(declare-fun fluent_ready_i0_t0@0 () Bool)
(declare-fun fluent_ready_i0_t1@0 () Bool)
(declare-fun fluent_ready_i0_t2@0 () Bool)
(declare-fun fluent_ready_i0_t3@0 () Bool)
(declare-fun fluent_counter_t1@1 () Real)
(declare-fun fluent_busy_@0 () Bool)
(declare-fun fluent_counter_t2@1 () Real)
(declare-fun fluent_treated_i0_t0@0 () Bool)
(declare-fun fluent_treated_i0_t1@0 () Bool)
(declare-fun fluent_treated_i0_t2@0 () Bool)
(declare-fun fluent_treated_i0_t3@0 () Bool)
(declare-fun fluent_counter_t3@1 () Real)
(declare-fun fluent_busy_@1 () Bool)
(declare-fun fluent_started_i0_t0@1 () Bool)
(declare-fun fluent_started_i0_t1@1 () Bool)
(declare-fun fluent_counter_t0@0 () Real)
(declare-fun fluent_started_i0_t2@1 () Bool)
(declare-fun fluent_started_i0_t3@1 () Bool)
(declare-fun fluent_counter_t1@0 () Real)
(declare-fun fluent_counter_t2@0 () Real)
(declare-fun __z3_2 () Real)
(declare-fun fluent_counter_t3@0 () Real)
(declare-fun fluent_treated_i0_t0@1 () Bool)
(declare-fun fluent_treated_i0_t1@1 () Bool)
(declare-fun fluent_treated_i0_t2@1 () Bool)
(declare-fun __z3_3 () Real)
(declare-fun fluent_treated_i0_t3@1 () Bool)
(declare-fun dur_make_treatment@1 () Real)
(declare-fun t@1 () Real)
(declare-fun fluent_ready_i0_t0@1 () Bool)
(declare-fun fluent_ready_i0_t1@1 () Bool)
(declare-fun __z3_0 () Real)
(declare-fun __z3_1 () Real)
(declare-fun fluent_ready_i0_t2@1 () Bool)
(declare-fun parameter_make_treatment_t@1 () Real)
(declare-fun fluent_ready_i0_t3@1 () Bool)
(declare-fun __z3_4 () Real)
(declare-fun __z3_5 () Real)
(declare-fun act_make_treatment@1 () Bool)
(declare-fun parameter_make_treatment_i@1 () Real)
(declare-fun parameter_make_treatment_next@1 () Real)
(assert (let ((.def_0 (= __z3_1 __z3_5))) (let ((.def_1 (= parameter_make_treatment_t@1 4.0))) (let ((.def_2 (or .def_1 .def_0))) (let ((.def_3 (= __z3_1 fluent_counter_t3@1))) (let ((.def_4 (not .def_1))) (let ((.def_5 (or .def_4 .def_3))) (let ((.def_6 (= __z3_5 __z3_4))) (let ((.def_7 (= parameter_make_treatment_t@1 3.0))) (let ((.def_8 (or .def_7 .def_6))) (let ((.def_9 (= __z3_5 fluent_counter_t2@1))) (let ((.def_10 (not .def_7))) (let ((.def_11 (or .def_10 .def_9))) (let ((.def_12 (= __z3_4 fluent_counter_t0@1))) (let ((.def_13 (= parameter_make_treatment_t@1 2.0))) (let ((.def_14 (or .def_13 .def_12))) (let ((.def_15 (= __z3_4 fluent_counter_t1@1))) (let ((.def_16 (not .def_13))) (let ((.def_17 (or .def_16 .def_15))) (let ((.def_18 (= __z3_0 __z3_3))) (let ((.def_19 (or .def_1 .def_18))) (let ((.def_20 (= __z3_0 fluent_counter_t3@0))) (let ((.def_21 (or .def_4 .def_20))) (let ((.def_22 (= __z3_3 __z3_2))) (let ((.def_23 (or .def_7 .def_22))) (let ((.def_24 (= __z3_3 fluent_counter_t2@0))) (let ((.def_25 (or .def_10 .def_24))) (let ((.def_26 (= __z3_2 fluent_counter_t0@0))) (let ((.def_27 (or .def_13 .def_26))) (let ((.def_28 (= __z3_2 fluent_counter_t1@0))) (let ((.def_29 (or .def_16 .def_28))) (let ((.def_30 (= parameter_make_treatment_next@1 4.0))) (let ((.def_31 (= parameter_make_treatment_next@1 3.0))) (let ((.def_32 (= parameter_make_treatment_next@1 2.0))) (let ((.def_33 (= parameter_make_treatment_next@1 1.0))) (let ((.def_34 (or .def_33 .def_32 .def_31 .def_30))) (let ((.def_35 (<= fluent_counter_t3@1 31.0))) (let ((.def_36 (<= 0.0 fluent_counter_t3@1))) (let ((.def_37 (<= fluent_counter_t2@1 31.0))) (let ((.def_38 (<= 0.0 fluent_counter_t2@1))) (let ((.def_39 (<= fluent_counter_t1@1 31.0))) (let ((.def_40 (<= 0.0 fluent_counter_t1@1))) (let ((.def_41 (<= fluent_counter_t0@1 31.0))) (let ((.def_42 (<= 0.0 fluent_counter_t0@1))) (let ((.def_43 (= parameter_make_treatment_i@1 0.0))) (let ((.def_44 (= parameter_make_treatment_t@1 1.0))) (let ((.def_45 (or .def_44 .def_13 .def_7 .def_1))) (let ((.def_46 (and act_make_treatment@1 true .def_1))) (let ((.def_47 (= fluent_counter_t3@0 fluent_counter_t3@1))) (let ((.def_48 (not .def_47))) (let ((.def_49 (=> .def_48 .def_46))) (let ((.def_50 (and act_make_treatment@1 true .def_7))) (let ((.def_51 (= fluent_counter_t2@0 fluent_counter_t2@1))) (let ((.def_52 (not .def_51))) (let ((.def_53 (=> .def_52 .def_50))) (let ((.def_54 (and act_make_treatment@1 true .def_13))) (let ((.def_55 (= fluent_counter_t1@0 fluent_counter_t1@1))) (let ((.def_56 (not .def_55))) (let ((.def_57 (=> .def_56 .def_54))) (let ((.def_58 (and act_make_treatment@1 true .def_44))) (let ((.def_59 (= fluent_counter_t0@0 fluent_counter_t0@1))) (let ((.def_60 (not .def_59))) (let ((.def_61 (=> .def_60 .def_58))) (let ((.def_62 (+ t@1 10.0))) (let ((.def_63 (= t@1 .def_62))) (let ((.def_64 (and act_make_treatment@1 true .def_63 .def_43 .def_30))) (let ((.def_65 (= fluent_ready_i0_t3@0 fluent_ready_i0_t3@1))) (let ((.def_66 (not .def_65))) (let ((.def_67 (=> .def_66 .def_64))) (let ((.def_68 (and act_make_treatment@1 true .def_63 .def_43 .def_31))) (let ((.def_69 (= fluent_ready_i0_t2@0 fluent_ready_i0_t2@1))) (let ((.def_70 (not .def_69))) (let ((.def_71 (=> .def_70 .def_68))) (let ((.def_72 (and act_make_treatment@1 true .def_63 .def_43 .def_32))) (let ((.def_73 (= fluent_ready_i0_t1@0 fluent_ready_i0_t1@1))) (let ((.def_74 (not .def_73))) (let ((.def_75 (=> .def_74 .def_72))) (let ((.def_76 (and act_make_treatment@1 true .def_63 .def_43 .def_33))) (let ((.def_77 (= fluent_ready_i0_t0@0 fluent_ready_i0_t0@1))) (let ((.def_78 (not .def_77))) (let ((.def_79 (=> .def_78 .def_76))) (let ((.def_80 (and act_make_treatment@1 true .def_43 .def_1))) (let ((.def_81 (= fluent_started_i0_t3@0 fluent_started_i0_t3@1))) (let ((.def_82 (not .def_81))) (let ((.def_83 (=> .def_82 .def_80))) (let ((.def_84 (and act_make_treatment@1 true .def_43 .def_7))) (let ((.def_85 (= fluent_started_i0_t2@0 fluent_started_i0_t2@1))) (let ((.def_86 (not .def_85))) (let ((.def_87 (=> .def_86 .def_84))) (let ((.def_88 (and act_make_treatment@1 true .def_43 .def_13))) (let ((.def_89 (= fluent_started_i0_t1@0 fluent_started_i0_t1@1))) (let ((.def_90 (not .def_89))) (let ((.def_91 (=> .def_90 .def_88))) (let ((.def_92 (and act_make_treatment@1 true .def_43 .def_44))) (let ((.def_93 (= fluent_started_i0_t0@0 fluent_started_i0_t0@1))) (let ((.def_94 (not .def_93))) (let ((.def_95 (=> .def_94 .def_92))) (let ((.def_96 (+ t@1 4.0))) (let ((.def_97 (= t@1 .def_96))) (let ((.def_98 (and act_make_treatment@1 true .def_97 .def_43 .def_1))) (let ((.def_99 (= fluent_treated_i0_t3@0 fluent_treated_i0_t3@1))) (let ((.def_100 (not .def_99))) (let ((.def_101 (=> .def_100 .def_98))) (let ((.def_102 (and act_make_treatment@1 true .def_97 .def_43 .def_7))) (let ((.def_103 (= fluent_treated_i0_t2@0 fluent_treated_i0_t2@1))) (let ((.def_104 (not .def_103))) (let ((.def_105 (=> .def_104 .def_102))) (let ((.def_106 (and act_make_treatment@1 true .def_97 .def_43 .def_13))) (let ((.def_107 (= fluent_treated_i0_t1@0 fluent_treated_i0_t1@1))) (let ((.def_108 (not .def_107))) (let ((.def_109 (=> .def_108 .def_106))) (let ((.def_110 (and act_make_treatment@1 true .def_97 .def_43 .def_44))) (let ((.def_111 (= fluent_treated_i0_t0@0 fluent_treated_i0_t0@1))) (let ((.def_112 (not .def_111))) (let ((.def_113 (=> .def_112 .def_110))) (let ((.def_114 (and act_make_treatment@1 true .def_97))) (let ((.def_115 (and act_make_treatment@1 true))) (let ((.def_116 (and .def_115 .def_114))) (let ((.def_117 (not .def_116))) (let ((.def_118 (or .def_115 .def_114))) (let ((.def_119 (= fluent_busy_@0 fluent_busy_@1))) (let ((.def_120 (not .def_119))) (let ((.def_121 (=> .def_120 .def_118))) (let ((.def_122 (<= 0.0 t@1))) (let ((.def_123 (and .def_43 .def_32))) (let ((.def_124 (or .def_123 fluent_ready_i0_t0@1))) (let ((.def_125 (not .def_123))) (let ((.def_126 (or .def_125 fluent_ready_i0_t1@1))) (let ((.def_127 (and .def_126 .def_124))) (let ((.def_128 (and .def_43 .def_31))) (let ((.def_129 (or .def_128 .def_127))) (let ((.def_130 (not .def_128))) (let ((.def_131 (or .def_130 fluent_ready_i0_t2@1))) (let ((.def_132 (and .def_131 .def_129))) (let ((.def_133 (and .def_43 .def_30))) (let ((.def_134 (or .def_133 .def_132))) (let ((.def_135 (not .def_133))) (let ((.def_136 (or .def_135 fluent_ready_i0_t3@1))) (let ((.def_137 (and .def_136 .def_134))) (let ((.def_138 (= .def_137 true))) (let ((.def_139 (=> true .def_138))) (let ((.def_140 (and .def_63 .def_139))) (let ((.def_141 (= fluent_busy_@1 false))) (let ((.def_142 (=> true .def_141))) (let ((.def_143 (and .def_43 .def_13))) (let ((.def_144 (or .def_143 fluent_treated_i0_t0@1))) (let ((.def_145 (not .def_143))) (let ((.def_146 (or .def_145 fluent_treated_i0_t1@1))) (let ((.def_147 (and .def_146 .def_144))) (let ((.def_148 (and .def_43 .def_7))) (let ((.def_149 (or .def_148 .def_147))) (let ((.def_150 (not .def_148))) (let ((.def_151 (or .def_150 fluent_treated_i0_t2@1))) (let ((.def_152 (and .def_151 .def_149))) (let ((.def_153 (and .def_43 .def_1))) (let ((.def_154 (or .def_153 .def_152))) (let ((.def_155 (not .def_153))) (let ((.def_156 (or .def_155 fluent_treated_i0_t3@1))) (let ((.def_157 (and .def_156 .def_154))) (let ((.def_158 (= .def_157 true))) (let ((.def_159 (=> true .def_158))) (let ((.def_160 (and .def_97 .def_159 .def_142))) (let ((.def_161 (or .def_143 fluent_started_i0_t0@1))) (let ((.def_162 (or .def_145 fluent_started_i0_t1@1))) (let ((.def_163 (and .def_162 .def_161))) (let ((.def_164 (or .def_148 .def_163))) (let ((.def_165 (or .def_150 fluent_started_i0_t2@1))) (let ((.def_166 (and .def_165 .def_164))) (let ((.def_167 (or .def_153 .def_166))) (let ((.def_168 (or .def_155 fluent_started_i0_t3@1))) (let ((.def_169 (and .def_168 .def_167))) (let ((.def_170 (= .def_169 true))) (let ((.def_171 (=> true .def_170))) (let ((.def_172 (= fluent_busy_@1 true))) (let ((.def_173 (=> true .def_172))) (let ((.def_174 (+ __z3_0 1.0))) (let ((.def_175 (= __z3_1 .def_174))) (let ((.def_176 (=> true .def_175))) (let ((.def_177 (= t@1 t@1))) (let ((.def_178 (and .def_177 .def_176 .def_173 .def_171))) (let ((.def_179 (or .def_123 fluent_started_i0_t0@0))) (let ((.def_180 (or .def_125 fluent_started_i0_t1@0))) (let ((.def_181 (and .def_180 .def_179))) (let ((.def_182 (or .def_128 .def_181))) (let ((.def_183 (or .def_130 fluent_started_i0_t2@0))) (let ((.def_184 (and .def_183 .def_182))) (let ((.def_185 (or .def_133 .def_184))) (let ((.def_186 (or .def_135 fluent_started_i0_t3@0))) (let ((.def_187 (and .def_186 .def_185))) (let ((.def_188 (+ t@1 dur_make_treatment@1))) (let ((.def_189 (<= .def_188 t@1))) (let ((.def_190 (< (- 1.0) .def_188))) (let ((.def_191 (and .def_190 .def_189))) (let ((.def_192 (=> .def_191 .def_187))) (let ((.def_193 (or .def_143 fluent_ready_i0_t0@0))) (let ((.def_194 (or .def_145 fluent_ready_i0_t1@0))) (let ((.def_195 (and .def_194 .def_193))) (let ((.def_196 (or .def_148 .def_195))) (let ((.def_197 (or .def_150 fluent_ready_i0_t2@0))) (let ((.def_198 (and .def_197 .def_196))) (let ((.def_199 (or .def_153 .def_198))) (let ((.def_200 (or .def_155 fluent_ready_i0_t3@0))) (let ((.def_201 (and .def_200 .def_199))) (let ((.def_202 (or .def_143 fluent_started_i0_t0@0))) (let ((.def_203 (or .def_145 fluent_started_i0_t1@0))) (let ((.def_204 (and .def_203 .def_202))) (let ((.def_205 (or .def_148 .def_204))) (let ((.def_206 (or .def_150 fluent_started_i0_t2@0))) (let ((.def_207 (and .def_206 .def_205))) (let ((.def_208 (or .def_153 .def_207))) (let ((.def_209 (or .def_155 fluent_started_i0_t3@0))) (let ((.def_210 (and .def_209 .def_208))) (let ((.def_211 (not .def_210))) (let ((.def_212 (or .def_143 fluent_treated_i0_t0@0))) (let ((.def_213 (or .def_145 fluent_treated_i0_t1@0))) (let ((.def_214 (and .def_213 .def_212))) (let ((.def_215 (or .def_148 .def_214))) (let ((.def_216 (or .def_150 fluent_treated_i0_t2@0))) (let ((.def_217 (and .def_216 .def_215))) (let ((.def_218 (or .def_153 .def_217))) (let ((.def_219 (or .def_155 fluent_treated_i0_t3@0))) (let ((.def_220 (and .def_219 .def_218))) (let ((.def_221 (not .def_220))) (let ((.def_222 (not fluent_busy_@0))) (let ((.def_223 (and .def_13 .def_33))) (let ((.def_224 (or .def_223 false))) (let ((.def_225 (not .def_223))) (let ((.def_226 (or .def_225 false))) (let ((.def_227 (and .def_226 .def_224))) (let ((.def_228 (and .def_7 .def_33))) (let ((.def_229 (or .def_228 .def_227))) (let ((.def_230 (not .def_228))) (let ((.def_231 (or .def_230 false))) (let ((.def_232 (and .def_231 .def_229))) (let ((.def_233 (and .def_1 .def_33))) (let ((.def_234 (or .def_233 .def_232))) (let ((.def_235 (not .def_233))) (let ((.def_236 (or .def_235 false))) (let ((.def_237 (and .def_236 .def_234))) (let ((.def_238 (and .def_44 .def_32))) (let ((.def_239 (or .def_238 .def_237))) (let ((.def_240 (not .def_238))) (let ((.def_241 (or .def_240 true))) (let ((.def_242 (and .def_241 .def_239))) (let ((.def_243 (and .def_13 .def_32))) (let ((.def_244 (or .def_243 .def_242))) (let ((.def_245 (not .def_243))) (let ((.def_246 (or .def_245 false))) (let ((.def_247 (and .def_246 .def_244))) (let ((.def_248 (and .def_7 .def_32))) (let ((.def_249 (or .def_248 .def_247))) (let ((.def_250 (not .def_248))) (let ((.def_251 (or .def_250 false))) (let ((.def_252 (and .def_251 .def_249))) (let ((.def_253 (and .def_1 .def_32))) (let ((.def_254 (or .def_253 .def_252))) (let ((.def_255 (not .def_253))) (let ((.def_256 (or .def_255 false))) (let ((.def_257 (and .def_256 .def_254))) (let ((.def_258 (and .def_44 .def_31))) (let ((.def_259 (or .def_258 .def_257))) (let ((.def_260 (not .def_258))) (let ((.def_261 (or .def_260 false))) (let ((.def_262 (and .def_261 .def_259))) (let ((.def_263 (and .def_13 .def_31))) (let ((.def_264 (or .def_263 .def_262))) (let ((.def_265 (not .def_263))) (let ((.def_266 (or .def_265 true))) (let ((.def_267 (and .def_266 .def_264))) (let ((.def_268 (and .def_7 .def_31))) (let ((.def_269 (or .def_268 .def_267))) (let ((.def_270 (not .def_268))) (let ((.def_271 (or .def_270 false))) (let ((.def_272 (and .def_271 .def_269))) (let ((.def_273 (and .def_1 .def_31))) (let ((.def_274 (or .def_273 .def_272))) (let ((.def_275 (not .def_273))) (let ((.def_276 (or .def_275 false))) (let ((.def_277 (and .def_276 .def_274))) (let ((.def_278 (and .def_44 .def_30))) (let ((.def_279 (or .def_278 .def_277))) (let ((.def_280 (not .def_278))) (let ((.def_281 (or .def_280 false))) (let ((.def_282 (and .def_281 .def_279))) (let ((.def_283 (and .def_13 .def_30))) (let ((.def_284 (or .def_283 .def_282))) (let ((.def_285 (not .def_283))) (let ((.def_286 (or .def_285 false))) (let ((.def_287 (and .def_286 .def_284))) (let ((.def_288 (and .def_7 .def_30))) (let ((.def_289 (or .def_288 .def_287))) (let ((.def_290 (not .def_288))) (let ((.def_291 (or .def_290 true))) (let ((.def_292 (and .def_291 .def_289))) (let ((.def_293 (and .def_1 .def_30))) (let ((.def_294 (or .def_293 .def_292))) (let ((.def_295 (not .def_293))) (let ((.def_296 (or .def_295 false))) (let ((.def_297 (and .def_296 .def_294))) (let ((.def_298 (= 0.0 __z3_0))) (let ((.def_299 (and .def_298 .def_297 .def_222 .def_221 .def_211 .def_201))) (let ((.def_300 (<= t@1 t@1))) (let ((.def_301 (< (- 1.0) t@1))) (let ((.def_302 (and .def_301 .def_300))) (let ((.def_303 (=> .def_302 .def_299))) (let ((.def_304 (<= dur_make_treatment@1 15.0))) (let ((.def_305 (<= 15.0 dur_make_treatment@1))) (let ((.def_306 (and .def_305 .def_304))) (let ((.def_307 (and .def_306 .def_189 .def_303 .def_192 .def_178 .def_160 .def_140))) (let ((.def_308 (=> act_make_treatment@1 .def_307))) (let ((.def_309 (<= fluent_counter_t3@0 31.0))) (let ((.def_310 (<= 0.0 fluent_counter_t3@0))) (let ((.def_311 (<= fluent_counter_t2@0 31.0))) (let ((.def_312 (<= 0.0 fluent_counter_t2@0))) (let ((.def_313 (<= fluent_counter_t1@0 31.0))) (let ((.def_314 (<= 0.0 fluent_counter_t1@0))) (let ((.def_315 (<= fluent_counter_t0@0 31.0))) (let ((.def_316 (<= 0.0 fluent_counter_t0@0))) (let ((.def_317 (= fluent_counter_t3@0 0.0))) (let ((.def_318 (= fluent_counter_t2@0 0.0))) (let ((.def_319 (= fluent_counter_t1@0 0.0))) (let ((.def_320 (= fluent_counter_t0@0 0.0))) (let ((.def_321 (= false false))) (let ((.def_322 (= fluent_ready_i0_t3@0 false))) (let ((.def_323 (= fluent_ready_i0_t2@0 false))) (let ((.def_324 (= fluent_ready_i0_t1@0 false))) (let ((.def_325 (= fluent_started_i0_t2@0 false))) (let ((.def_326 (= fluent_started_i0_t1@0 false))) (let ((.def_327 (= fluent_started_i0_t0@0 false))) (let ((.def_328 (= fluent_treated_i0_t3@0 false))) (let ((.def_329 (= fluent_treated_i0_t2@0 false))) (let ((.def_330 (= fluent_treated_i0_t1@0 false))) (let ((.def_331 (= fluent_treated_i0_t0@0 false))) (let ((.def_332 (= fluent_busy_@0 false))) (let ((.def_333 (= fluent_ready_i0_t0@0 true))) (let ((.def_334 (= fluent_started_i0_t3@0 true))) (let ((.def_335 (= true true))) (let ((.def_336 (= 0.0 0.0))) (let ((.def_337 (and .def_336 .def_335 .def_335 .def_335 .def_334 .def_333 .def_332 .def_331 .def_330 .def_329 .def_328 .def_327 .def_326 .def_325 .def_324 .def_323 .def_322 .def_321 .def_321 .def_321 .def_321 .def_321 .def_321 .def_321 .def_321 .def_321 .def_321 .def_321 .def_321 .def_321 .def_320 .def_319 .def_318 .def_317 .def_316 .def_315 .def_314 .def_313 .def_312 .def_311 .def_310 .def_309 .def_308 .def_122 .def_121 .def_117 .def_113 .def_109 .def_105 .def_101 .def_95 .def_91 .def_87 .def_83 .def_79 .def_75 .def_71 .def_67 .def_61 .def_57 .def_53 .def_49 .def_45 .def_43 .def_42 .def_41 .def_40 .def_39 .def_38 .def_37 .def_36 .def_35 .def_34 .def_29 .def_27 .def_25 .def_23 .def_21 .def_19 .def_17 .def_14 .def_11 .def_8 .def_5 .def_2))) .def_337)))))))))))))))))))))))))))))))))))))))))))))))))))))))))))))))))))))))))))))))))))))))))))))))))))))))))))))))))))))))))))))))))))))))))))))))))))))))))))))))))))))))))))))))))))))))))))))))))))))))))))))))))))))))))))))))))))))))))))))))))))))))))))))))))))))))))))))))))))))))))))))))))))))))))))))))))))))))))))))))))))))))))))))))))))
(check-sat)
